c --- [ banner ] -------------------------------------------------------------
c 
c CaDiCaL SAT Solver
c Copyright (c) 2016-2024
c A. Biere, M. Fleury, N. Froleyks, K. Fazekas, F. Pollitt, T. Faller
c JKU Linz, University of Freiburg, TU Wien
c 
c Version 2.1.3 f13d74439a5b5c963ac5b02d05ce93a8098018b8
c g++ (Gentoo 12.3.1_p20230526 p2) 12.3.1 20230526 -Wall -Wextra -O3 -DNDEBUG
c Thu Apr 10 08:26:21 EDT 2025 Linux narval2.narval.calcul.quebec 4.18.0-553.40.1.el8_10.x86_64 x86_64
c 
c --- [ parsing input ] ------------------------------------------------------
c 
c reading DIMACS file from 'cnfs//op_complete_5.cnf'
c opening file to read 'cnfs//op_complete_5.cnf'
c found 'p cnf 20 75' header
c parsed 75 clauses in 0.00 seconds process time
c 
c --- [ options ] ------------------------------------------------------------
c 
c all options are set to their default value
c 
c --- [ solving ] ------------------------------------------------------------
c 
c time measured in process time since initialization
c 
c  seconds  reductions  redundant irredundant
c         MB    restarts       trail    variables
c          level   conflicts       glue     remaining
c 
c *  0.00  3  0 0   0    0    0  0% 0   75  20 100%
c {  0.00  3  0 0   0    0    0  0% 0   75  20 100%
c i  0.00  4  1 0   0    4    0 77% 0   75  18 90%
c }  0.00  4  1 0   1    7    0 71% 0   75  14 70%
c 0  0.00  4  1 0   1    7    0 71% 0   75  14 70%
c 
c --- [ result ] -------------------------------------------------------------
c 
s UNSATISFIABLE
c 
c --- [ run-time profiling ] -------------------------------------------------
c 
c process time taken by individual solving procedures
c (percentage relative to process time for solving)
c 
c         0.00   88.40% parse
c         0.00   55.80% search
c         0.00   39.78% unstable
c         0.00    8.29% lucky
c         0.00    0.00% simplify
c   =================================
c         0.00   22.85% solve
c 
c last line shows process time for solving
c (percentage relative to total process time)
c 
c --- [ statistics ] ---------------------------------------------------------
c 
c chronological:                 1        14.29 %  of conflicts
c conflicts:                     7     38674.03    per second
c decisions:                     7     38674.03    per second
c fixed:                         6        30.00 %  of all variables
c learned:                       2        28.57 %  per conflict
c learned_lits:                  2       100.00 %  learned literals
c minimized:                     0         0.00 %  learned literals
c shrunken:                      0         0.00 %  learned literals
c minishrunken:                  0         0.00 %  learned literals
c otfs:                          8       114.29 %  of conflict
c propagations:                 58         0.32 M  per second
c restarts:                      1         7.00    interval
c strengthened:                  8        10.67 %  of all clauses
c 
c seconds are measured in process time for solving
c 
c --- [ resources ] ----------------------------------------------------------
c 
c total process time since initialization:         0.00    seconds
c total real time since initialization:            0.07    seconds
c maximum resident set size of process:            4.16    MB
c 
c --- [ shutting down ] ------------------------------------------------------
c 
c exit 20
